n=10;
hearts=6;
clubs=30;
spades=31;
diamonds=65;
blocked=2;
m=array2d(1..n, 1..n,[
	2,_,_,_,_,_,5,_,5,_,
	_,3,_,_,_,_,3,_,_,_,
	_,_,_,_,4,_,4,1,2,3,
	_,_,_,_,3,_,_,_,_,_,
	_,_,_,2,4,_,_,_,_,1,
	_,3,_,_,_,_,1,4,3,_,
	_,_,3,_,2,1,_,_,2,_,
	_,_,_,_,_,_,_,1,_,_,
	_,_,_,_,_,_,_,_,2,_,
	1,_,_,_,_,_,_,_,_,_
]);
